(set-option :produce-models true); benchmark generated from python API
(set-info :status unknown)
(declare-fun l_0_0_5 () Real)
(declare-fun l_0_0_3 () Real)
(declare-fun l_0_0_4 () Real)
(declare-fun l_0_0_2 () Real)
(declare-fun l_0_0_9 () Real)
(declare-fun l_0_0_11 () Real)
(declare-fun l_0_0_8 () Real)
(declare-fun l_0_0_10 () Real)
(declare-fun l_0_0_1 () Real)
(declare-fun _a_0_ () Real)
(declare-fun l_0_0_7 () Real)
(declare-fun _a_1_ () Real)
(declare-fun l_0_0_6 () Real)
(declare-fun l_0_0_12 () Real)
(declare-fun _a_2_ () Real)
(declare-fun _a_3_ () Real)
(declare-fun _a_4_ () Real)
(declare-fun _a_5_ () Real)
(declare-fun l_0_1_7 () Real)
(declare-fun l_0_1_13 () Real)
(declare-fun l_0_1_1 () Real)
(declare-fun l_0_1_18 () Real)
(declare-fun l_0_1_17 () Real)
(declare-fun l_0_1_16 () Real)
(declare-fun l_0_1_12 () Real)
(declare-fun l_0_1_11 () Real)
(declare-fun l_0_1_10 () Real)
(declare-fun l_0_1_4 () Real)
(declare-fun l_0_1_6 () Real)
(declare-fun l_0_1_5 () Real)
(declare-fun l_0_1_15 () Real)
(declare-fun l_0_1_14 () Real)
(declare-fun l_0_1_9 () Real)
(declare-fun l_0_1_8 () Real)
(declare-fun l_0_1_2 () Real)
(declare-fun l_0_1_3 () Real)
(declare-fun l_0_2_9 () Real)
(declare-fun l_0_2_8 () Real)
(declare-fun l_0_2_15 () Real)
(declare-fun l_0_2_14 () Real)
(declare-fun l_0_2_2 () Real)
(declare-fun l_0_2_1 () Real)
(declare-fun l_0_2_3 () Real)
(declare-fun l_0_2_17 () Real)
(declare-fun l_0_2_16 () Real)
(declare-fun l_0_2_11 () Real)
(declare-fun l_0_2_10 () Real)
(declare-fun l_0_2_4 () Real)
(declare-fun l_0_2_5 () Real)
(declare-fun l_0_2_18 () Real)
(declare-fun l_0_2_12 () Real)
(declare-fun l_0_2_6 () Real)
(declare-fun l_0_2_7 () Real)
(declare-fun l_0_2_13 () Real)
(assert
 (let ((?x60 (* 2.0 l_0_0_1)))
 (let ((?x63 (* ?x60 l_0_0_4)))
 (let ((?x67 (- (- (- _a_0_ (* ?x60 l_0_0_2)) ?x63) (* (* 2.0 l_0_0_10) l_0_0_8))))
 (let ((?x74 (- (- ?x67 (* (* 2.0 l_0_0_11) l_0_0_9)) (* (* (/ 1.0 4.0) l_0_0_2) l_0_0_4))))
 (= (- ?x74 (* (* (/ 1.0 4.0) l_0_0_3) l_0_0_5)) 0.0))))))
(assert
 (let ((?x142 (* l_0_0_7 l_0_0_7)))
 (= (- (- _a_1_ (* (* (/ 1.0 8.0) l_0_0_1) l_0_0_1)) ?x142) 0.0)))
(assert
 (let ((?x162 (* l_0_0_12 l_0_0_12)))
 (let ((?x160 (* l_0_0_11 l_0_0_11)))
 (let ((?x158 (* l_0_0_10 l_0_0_10)))
 (let ((?x145 (* l_0_0_1 l_0_0_1)))
 (let ((?x161 (- (- (+ (- _a_2_ (* (* 2.0 l_0_0_1) l_0_0_4)) ?x145) ?x158) ?x160)))
 (let ((?x169 (- (- (- ?x161 ?x162) (* (* (/ 1.0 8.0) l_0_0_4) l_0_0_4)) (* (* (/ 1.0 8.0) l_0_0_5) l_0_0_5))))
 (= (- ?x169 (* (* (/ 1.0 8.0) l_0_0_6) l_0_0_6)) 0.0))))))))
(assert
 (let ((?x215 (* l_0_0_9 l_0_0_9)))
 (let ((?x213 (* l_0_0_8 l_0_0_8)))
 (let ((?x145 (* l_0_0_1 l_0_0_1)))
 (let ((?x209 (- (+ (- _a_3_ (* (* 2.0 l_0_0_1) l_0_0_2)) ?x145) (* (* (/ 1.0 8.0) l_0_0_2) l_0_0_2))))
 (= (- (- (- ?x209 (* (* (/ 1.0 8.0) l_0_0_3) l_0_0_3)) ?x213) ?x215) 0.0))))))
(assert
 (let ((?x245 (* (* 1.0 l_0_0_1) l_0_0_1)))
 (let ((?x249 (- (- (- _a_4_ (* (* (/ 1.0 4.0) l_0_0_1) l_0_0_2)) ?x245) (* (* 2.0 l_0_0_7) l_0_0_8))))
 (= ?x249 0.0))))
(assert
 (let ((?x245 (* (* 1.0 l_0_0_1) l_0_0_1)))
 (let ((?x270 (- (- (- _a_5_ (* (* (/ 1.0 4.0) l_0_0_1) l_0_0_4)) ?x245) (* (* 2.0 l_0_0_10) l_0_0_7))))
 (= ?x270 0.0))))
(assert
 (let ((?x290 (* (* 1.0 l_0_0_3) l_0_0_3)))
 (let ((?x287 (* (* 1.0 l_0_0_2) l_0_0_2)))
 (let ((?x60 (* 2.0 l_0_0_1)))
 (let ((?x61 (* ?x60 l_0_0_2)))
 (= (- (- ?x61 ?x287) ?x290) 0.0))))))
(assert
 (let ((?x290 (* (* 1.0 l_0_0_3) l_0_0_3)))
 (let ((?x304 (* (* 2.0 l_0_0_3) l_0_0_5)))
 (let ((?x287 (* (* 1.0 l_0_0_2) l_0_0_2)))
 (let ((?x300 (* (* 2.0 l_0_0_2) l_0_0_4)))
 (let ((?x60 (* 2.0 l_0_0_1)))
 (let ((?x63 (* ?x60 l_0_0_4)))
 (= (- (- (- (- ?x63 ?x300) ?x287) ?x304) ?x290) 0.0))))))))
(assert
 (let ((?x227 (* l_0_0_3 l_0_0_3)))
 (let ((?x221 (* l_0_0_2 l_0_0_2)))
 (let ((?x323 (+ ?x221 ?x227)))
 (= ?x323 0.0)))))
(assert
 (let ((?x304 (* (* 2.0 l_0_0_3) l_0_0_5)))
 (let ((?x300 (* (* 2.0 l_0_0_2) l_0_0_4)))
 (= (+ ?x300 ?x304) 0.0))))
(assert
 (let ((?x198 (* l_0_0_6 l_0_0_6)))
 (let ((?x192 (* l_0_0_5 l_0_0_5)))
 (let ((?x186 (* l_0_0_4 l_0_0_4)))
 (let ((?x227 (* l_0_0_3 l_0_0_3)))
 (let ((?x221 (* l_0_0_2 l_0_0_2)))
 (let ((?x323 (+ ?x221 ?x227)))
 (= (+ (+ (+ ?x323 ?x186) ?x192) ?x198) 0.0))))))))
(assert
 (let ((?x344 (* (* 1.0 l_0_0_6) l_0_0_6)))
 (let ((?x341 (* (* 1.0 l_0_0_5) l_0_0_5)))
 (let ((?x338 (* (* 1.0 l_0_0_4) l_0_0_4)))
 (let ((?x304 (* (* 2.0 l_0_0_3) l_0_0_5)))
 (let ((?x300 (* (* 2.0 l_0_0_2) l_0_0_4)))
 (let ((?x60 (* 2.0 l_0_0_1)))
 (let ((?x61 (* ?x60 l_0_0_2)))
 (= (- (- (- (- (- ?x61 ?x300) ?x304) ?x338) ?x341) ?x344) 0.0)))))))))
(assert
 (let ((?x344 (* (* 1.0 l_0_0_6) l_0_0_6)))
 (let ((?x341 (* (* 1.0 l_0_0_5) l_0_0_5)))
 (let ((?x338 (* (* 1.0 l_0_0_4) l_0_0_4)))
 (let ((?x60 (* 2.0 l_0_0_1)))
 (let ((?x63 (* ?x60 l_0_0_4)))
 (= (- (- (- ?x63 ?x338) ?x341) ?x344) 0.0)))))))
(assert
 (let ((?x304 (* (* 2.0 l_0_0_3) l_0_0_5)))
 (let ((?x300 (* (* 2.0 l_0_0_2) l_0_0_4)))
 (= (+ ?x300 ?x304) 0.0))))
(assert
 (let ((?x198 (* l_0_0_6 l_0_0_6)))
 (= (+ (+ (* l_0_0_4 l_0_0_4) (* l_0_0_5 l_0_0_5)) ?x198) 0.0)))
(assert
 (>= l_0_0_1 0.0))
(assert
 (>= l_0_0_3 0.0))
(assert
 (>= l_0_0_6 0.0))
(assert
 (>= l_0_0_7 0.0))
(assert
 (>= l_0_0_9 0.0))
(assert
 (>= l_0_0_12 0.0))
(assert
 (let ((?x389 (+ (- (* (* (- _a_1_) l_0_1_1) l_0_1_1) (* l_0_1_13 l_0_1_13)) (* 1.0 (* l_0_1_7 l_0_1_7)))))
 (= (+ ?x389 4.0) 0.0)))
(assert
 (let ((?x428 (* l_0_1_18 l_0_1_18)))
 (let ((?x426 (* l_0_1_17 l_0_1_17)))
 (let ((?x424 (* l_0_1_16 l_0_1_16)))
 (let ((?x405 (* l_0_1_6 l_0_1_6)))
 (let ((?x406 (+ (+ (* l_0_1_4 l_0_1_4) (* l_0_1_5 l_0_1_5)) ?x405)))
 (let ((?x382 (- _a_1_)))
 (let ((?x414 (- (- (* ?x382 ?x406) (* (* _a_2_ l_0_1_1) l_0_1_1)) (* (* (* 2.0 _a_5_) l_0_1_1) l_0_1_4))))
 (let ((?x420 (+ (+ ?x414 (* 1.0 (* l_0_1_10 l_0_1_10))) (* 1.0 (* l_0_1_11 l_0_1_11)))))
 (let ((?x429 (- (- (- (+ ?x420 (* 1.0 (* l_0_1_12 l_0_1_12))) ?x424) ?x426) ?x428)))
 (= (- ?x429 1.0) 0.0)))))))))))
(assert
 (let ((?x470 (+ (* (* 2.0 l_0_1_2) l_0_1_4) (* (* 2.0 l_0_1_3) l_0_1_5))))
 (let ((?x476 (- (- (* (* (- _a_0_) l_0_1_1) l_0_1_1) (* _a_1_ ?x470)) (* (* (* 2.0 _a_4_) l_0_1_1) l_0_1_4))))
 (let ((?x481 (+ (- ?x476 (* (* (* 2.0 _a_5_) l_0_1_1) l_0_1_2)) (* (* 2.0 l_0_1_10) l_0_1_8))))
 (let ((?x487 (- (+ ?x481 (* (* 2.0 l_0_1_11) l_0_1_9)) (* (* 2.0 l_0_1_14) l_0_1_16))))
 (= (- ?x487 (* (* 2.0 l_0_1_15) l_0_1_17)) 0.0))))))
(assert
 (let ((?x470 (+ (* (* 2.0 l_0_1_2) l_0_1_4) (* (* 2.0 l_0_1_3) l_0_1_5))))
 (let ((?x557 (- (* (* (* (- 2.0) _a_0_) l_0_1_1) l_0_1_2) (* (* (* 2.0 _a_3_) l_0_1_1) l_0_1_4))))
 (let ((?x564 (- (- ?x557 (* _a_4_ ?x470)) (* _a_5_ (+ (* l_0_1_2 l_0_1_2) (* l_0_1_3 l_0_1_3))))))
 (= ?x564 0.0)))))
(assert
 (let ((?x470 (+ (* (* 2.0 l_0_1_2) l_0_1_4) (* (* 2.0 l_0_1_3) l_0_1_5))))
 (let ((?x405 (* l_0_1_6 l_0_1_6)))
 (let ((?x406 (+ (+ (* l_0_1_4 l_0_1_4) (* l_0_1_5 l_0_1_5)) ?x405)))
 (let ((?x611 (- (* (* (* (- 2.0) _a_0_) l_0_1_1) l_0_1_4) (* (* (* 2.0 _a_2_) l_0_1_1) l_0_1_2))))
 (= (- (- ?x611 (* _a_4_ ?x406)) (* _a_5_ ?x470)) 0.0))))))
(assert
 (let ((?x470 (+ (* (* 2.0 l_0_1_2) l_0_1_4) (* (* 2.0 l_0_1_3) l_0_1_5))))
 (let ((?x665 (- (* (- _a_0_) (+ (* l_0_1_2 l_0_1_2) (* l_0_1_3 l_0_1_3))) (* _a_3_ ?x470))))
 (= ?x665 0.0))))
(assert
 (let ((?x405 (* l_0_1_6 l_0_1_6)))
 (let ((?x406 (+ (+ (* l_0_1_4 l_0_1_4) (* l_0_1_5 l_0_1_5)) ?x405)))
 (let ((?x470 (+ (* (* 2.0 l_0_1_2) l_0_1_4) (* (* 2.0 l_0_1_3) l_0_1_5))))
 (let ((?x463 (- _a_0_)))
 (let ((?x693 (- (* ?x463 ?x470) (* _a_2_ (+ (* l_0_1_2 l_0_1_2) (* l_0_1_3 l_0_1_3))))))
 (= (- ?x693 (* _a_3_ ?x406)) 0.0)))))))
(assert
 (let ((?x470 (+ (* (* 2.0 l_0_1_2) l_0_1_4) (* (* 2.0 l_0_1_3) l_0_1_5))))
 (let ((?x405 (* l_0_1_6 l_0_1_6)))
 (let ((?x406 (+ (+ (* l_0_1_4 l_0_1_4) (* l_0_1_5 l_0_1_5)) ?x405)))
 (let ((?x463 (- _a_0_)))
 (= (- (* ?x463 ?x406) (* _a_2_ ?x470)) 0.0))))))
(assert
 (let ((?x766 (- (* (* (* (- 2.0) _a_1_) l_0_1_1) l_0_1_2) (* (* _a_4_ l_0_1_1) l_0_1_1))))
 (let ((?x772 (+ (- ?x766 (* (* 2.0 l_0_1_13) l_0_1_14)) (* (* 2.0 l_0_1_7) l_0_1_8))))
 (= ?x772 0.0))))
(assert
 (let ((?x793 (- (* (* (* (- 2.0) _a_1_) l_0_1_1) l_0_1_4) (* (* _a_5_ l_0_1_1) l_0_1_1))))
 (let ((?x797 (- (+ ?x793 (* (* 2.0 l_0_1_10) l_0_1_7)) (* (* 2.0 l_0_1_13) l_0_1_16))))
 (= ?x797 0.0))))
(assert
 (let ((?x827 (* l_0_1_15 l_0_1_15)))
 (let ((?x825 (* l_0_1_14 l_0_1_14)))
 (let ((?x822 (- (* (- _a_1_) (+ (* l_0_1_2 l_0_1_2) (* l_0_1_3 l_0_1_3))) (* (* _a_3_ l_0_1_1) l_0_1_1))))
 (let ((?x828 (- (- (- ?x822 (* (* (* 2.0 _a_4_) l_0_1_1) l_0_1_2)) ?x825) ?x827)))
 (let ((?x834 (+ (+ ?x828 (* 1.0 (* l_0_1_8 l_0_1_8))) (* 1.0 (* l_0_1_9 l_0_1_9)))))
 (= ?x834 0.0)))))))
(assert
 (let ((?x405 (* l_0_1_6 l_0_1_6)))
 (let ((?x406 (+ (+ (* l_0_1_4 l_0_1_4) (* l_0_1_5 l_0_1_5)) ?x405)))
 (= (- (* (* (* (- 2.0) _a_2_) l_0_1_1) l_0_1_4) (* _a_5_ ?x406)) 0.0))))
(assert
 (let ((?x405 (* l_0_1_6 l_0_1_6)))
 (let ((?x406 (+ (+ (* l_0_1_4 l_0_1_4) (* l_0_1_5 l_0_1_5)) ?x405)))
 (let ((?x888 (- _a_2_)))
 (= (* ?x888 ?x406) 0.0)))))
(assert
 (let ((?x905 (- (* (* (* (- 2.0) _a_3_) l_0_1_1) l_0_1_2) (* _a_4_ (+ (* l_0_1_2 l_0_1_2) (* l_0_1_3 l_0_1_3))))))
 (= ?x905 0.0)))
(assert
 (= (* (- _a_3_) (+ (* l_0_1_2 l_0_1_2) (* l_0_1_3 l_0_1_3))) 0.0))
(assert
 (>= l_0_1_1 0.0))
(assert
 (>= l_0_1_3 0.0))
(assert
 (>= l_0_1_6 0.0))
(assert
 (>= l_0_1_7 0.0))
(assert
 (>= l_0_1_9 0.0))
(assert
 (>= l_0_1_12 0.0))
(assert
 (>= l_0_1_13 0.0))
(assert
 (>= l_0_1_15 0.0))
(assert
 (>= l_0_1_18 0.0))
(assert
 (let ((?x965 (* l_0_2_15 l_0_2_15)))
 (let ((?x963 (* l_0_2_14 l_0_2_14)))
 (let ((?x958 (* (/ 790123456790123.0 1000000000000000.0) _a_3_)))
 (let ((?x952 (* (/ 1.0 100.0) _a_2_)))
 (let ((?x945 (* (/ 888888888888889.0 10000000000000000.0) _a_0_)))
 (let ((?x950 (- ?x945 (* _a_1_ (+ (* l_0_2_2 l_0_2_2) (* l_0_2_3 l_0_2_3))))))
 (let ((?x962 (- (+ (- (+ ?x950 ?x952) (* (* _a_3_ l_0_2_1) l_0_2_1)) ?x958) (* (* (* 2.0 _a_4_) l_0_2_1) l_0_2_2))))
 (let ((?x972 (- (- (- (- ?x962 ?x963) ?x965) (* (* 1.0 l_0_2_8) l_0_2_8)) (* (* 1.0 l_0_2_9) l_0_2_9))))
 (= ?x972 0.0))))))))))
(assert
 (let ((?x1029 (* (/ 493827160493827.0 5000000000000000.0) _a_3_)))
 (let ((?x1026 (* (/ 9.0 50.0) _a_2_)))
 (let ((?x1022 (+ (* (* 2.0 l_0_2_2) l_0_2_4) (* (* 2.0 l_0_2_3) l_0_2_5))))
 (let ((?x1024 (- (+ (* (* (- _a_0_) l_0_2_1) l_0_2_1) (* (/ 198611111111111.0 250000000000000.0) _a_0_)) (* _a_1_ ?x1022))))
 (let ((?x1032 (- (- (+ ?x1024 ?x1026) ?x1029) (* (* (* 2.0 _a_4_) l_0_2_1) l_0_2_4))))
 (let ((?x1038 (- (- ?x1032 (* (* (* 2.0 _a_5_) l_0_2_1) l_0_2_2)) (* (* 2.0 l_0_2_10) l_0_2_8))))
 (let ((?x1044 (- (- ?x1038 (* (* 2.0 l_0_2_11) l_0_2_9)) (* (* 2.0 l_0_2_14) l_0_2_16))))
 (= (- ?x1044 (* (* 2.0 l_0_2_15) l_0_2_17)) 0.0)))))))))
(assert
 (let ((?x1151 (* l_0_2_18 l_0_2_18)))
 (let ((?x1149 (* l_0_2_17 l_0_2_17)))
 (let ((?x1147 (* l_0_2_16 l_0_2_16)))
 (let ((?x1134 (* (/ 154320987654321.0 50000000000000000.0) _a_3_)))
 (let ((?x1131 (* (/ 81.0 100.0) _a_2_)))
 (let ((?x1123 (* l_0_2_6 l_0_2_6)))
 (let ((?x1124 (+ (+ (* l_0_2_4 l_0_2_4) (* l_0_2_5 l_0_2_5)) ?x1123)))
 (let ((?x1119 (* (- (/ 1.0 20.0)) _a_0_)))
 (let ((?x1132 (+ (- (- ?x1119 (* _a_1_ ?x1124)) (* (* _a_2_ l_0_2_1) l_0_2_1)) ?x1131)))
 (let ((?x1140 (- (- (+ ?x1132 ?x1134) (* (* (* 2.0 _a_5_) l_0_2_1) l_0_2_4)) (* (* 1.0 l_0_2_10) l_0_2_10))))
 (let ((?x1146 (- (- ?x1140 (* (* 1.0 l_0_2_11) l_0_2_11)) (* (* 1.0 l_0_2_12) l_0_2_12))))
 (= (- (- (- ?x1146 ?x1147) ?x1149) ?x1151) 0.0)))))))))))))
(assert
 (let ((?x1214 (* l_0_2_13 l_0_2_13)))
 (let ((?x1218 (- (- (+ (* (* (- _a_1_) l_0_2_1) l_0_2_1) _a_1_) ?x1214) (* (* 1.0 l_0_2_7) l_0_2_7))))
 (= ?x1218 0.0))))
(assert
 (let ((?x1239 (* (/ 1.0 10.0) _a_5_)))
 (let ((?x1236 (* (/ 888888888888889.0 1000000000000000.0) _a_4_)))
 (let ((?x1234 (- (* (* (* (- 2.0) _a_1_) l_0_2_1) l_0_2_2) (* (* _a_4_ l_0_2_1) l_0_2_1))))
 (let ((?x1246 (- (- (+ (+ ?x1234 ?x1236) ?x1239) (* (* 2.0 l_0_2_13) l_0_2_14)) (* (* 2.0 l_0_2_7) l_0_2_8))))
 (= ?x1246 0.0))))))
(assert
 (let ((?x1275 (* (/ 9.0 10.0) _a_5_)))
 (let ((?x1273 (- (- (* (* (* (- 2.0) _a_1_) l_0_2_1) l_0_2_4) (* (/ 138888888888889.0 2500000000000000.0) _a_4_)) (* (* _a_5_ l_0_2_1) l_0_2_1))))
 (let ((?x1280 (- (- (+ ?x1273 ?x1275) (* (* 2.0 l_0_2_10) l_0_2_7)) (* (* 2.0 l_0_2_13) l_0_2_16))))
 (= ?x1280 0.0)))))
(assert
 (let ((?x1022 (+ (* (* 2.0 l_0_2_2) l_0_2_4) (* (* 2.0 l_0_2_3) l_0_2_5))))
 (let ((?x1317 (- (* (* (* (- 2.0) _a_0_) l_0_2_1) l_0_2_2) (* (* (* 2.0 _a_3_) l_0_2_1) l_0_2_4))))
 (let ((?x1321 (- (- ?x1317 (* _a_4_ ?x1022)) (* _a_5_ (+ (* l_0_2_2 l_0_2_2) (* l_0_2_3 l_0_2_3))))))
 (= ?x1321 0.0)))))
(assert
 (let ((?x1022 (+ (* (* 2.0 l_0_2_2) l_0_2_4) (* (* 2.0 l_0_2_3) l_0_2_5))))
 (let ((?x1123 (* l_0_2_6 l_0_2_6)))
 (let ((?x1124 (+ (+ (* l_0_2_4 l_0_2_4) (* l_0_2_5 l_0_2_5)) ?x1123)))
 (let ((?x1367 (- (* (* (* (- 2.0) _a_0_) l_0_2_1) l_0_2_4) (* (* (* 2.0 _a_2_) l_0_2_1) l_0_2_2))))
 (= (- (- ?x1367 (* _a_4_ ?x1124)) (* _a_5_ ?x1022)) 0.0))))))
(assert
 (let ((?x1022 (+ (* (* 2.0 l_0_2_2) l_0_2_4) (* (* 2.0 l_0_2_3) l_0_2_5))))
 (let ((?x1421 (- (* (- _a_0_) (+ (* l_0_2_2 l_0_2_2) (* l_0_2_3 l_0_2_3))) (* _a_3_ ?x1022))))
 (= ?x1421 0.0))))
(assert
 (let ((?x1123 (* l_0_2_6 l_0_2_6)))
 (let ((?x1124 (+ (+ (* l_0_2_4 l_0_2_4) (* l_0_2_5 l_0_2_5)) ?x1123)))
 (let ((?x1022 (+ (* (* 2.0 l_0_2_2) l_0_2_4) (* (* 2.0 l_0_2_3) l_0_2_5))))
 (let ((?x463 (- _a_0_)))
 (let ((?x1449 (- (* ?x463 ?x1022) (* _a_2_ (+ (* l_0_2_2 l_0_2_2) (* l_0_2_3 l_0_2_3))))))
 (= (- ?x1449 (* _a_3_ ?x1124)) 0.0)))))))
(assert
 (let ((?x1022 (+ (* (* 2.0 l_0_2_2) l_0_2_4) (* (* 2.0 l_0_2_3) l_0_2_5))))
 (let ((?x1123 (* l_0_2_6 l_0_2_6)))
 (let ((?x1124 (+ (+ (* l_0_2_4 l_0_2_4) (* l_0_2_5 l_0_2_5)) ?x1123)))
 (let ((?x463 (- _a_0_)))
 (= (- (* ?x463 ?x1124) (* _a_2_ ?x1022)) 0.0))))))
(assert
 (let ((?x1123 (* l_0_2_6 l_0_2_6)))
 (let ((?x1124 (+ (+ (* l_0_2_4 l_0_2_4) (* l_0_2_5 l_0_2_5)) ?x1123)))
 (= (- (* (* (* (- 2.0) _a_2_) l_0_2_1) l_0_2_4) (* _a_5_ ?x1124)) 0.0))))
(assert
 (let ((?x1123 (* l_0_2_6 l_0_2_6)))
 (let ((?x1124 (+ (+ (* l_0_2_4 l_0_2_4) (* l_0_2_5 l_0_2_5)) ?x1123)))
 (let ((?x888 (- _a_2_)))
 (= (* ?x888 ?x1124) 0.0)))))
(assert
 (let ((?x1556 (- (* (* (* (- 2.0) _a_3_) l_0_2_1) l_0_2_2) (* _a_4_ (+ (* l_0_2_2 l_0_2_2) (* l_0_2_3 l_0_2_3))))))
 (= ?x1556 0.0)))
(assert
 (= (* (- _a_3_) (+ (* l_0_2_2 l_0_2_2) (* l_0_2_3 l_0_2_3))) 0.0))
(assert
 (>= l_0_2_1 0.0))
(assert
 (>= l_0_2_3 0.0))
(assert
 (>= l_0_2_6 0.0))
(assert
 (>= l_0_2_7 0.0))
(assert
 (>= l_0_2_9 0.0))
(assert
 (>= l_0_2_12 0.0))
(assert
 (>= l_0_2_13 0.0))
(assert
 (>= l_0_2_15 0.0))
(assert
 (>= l_0_2_18 0.0))
(check-sat)
(get-model)